r = [
0,6,11,9,12,10,14,6,13,14,11,0
];
p = [
0,16,10,6,11,16,21,16,7,29,14,0
];
e = [
0,20,9,17,13,3,19,15,2,1,11,0
];
d = [
0,135,147,145,140,145,152,139,151,139,142,154
];
d_bar = [
0,137,148,146,141,147,154,141,152,142,143,154
];
w = [
0,10,9,17,13,1.5,9.5,7.5,2,0.333333333,11,0
];
